data;
param n:=50;
param w:=1 -74 2 2 3 76 4 125 5 81 6 -51 7 -180 8 88 9 -226 10 123 11 -140 12 -108 13 183 14 -222 15 -142 16 115 17 166 18 203 19 37 20 229 21 44 22 -250 23 -83 24 47 25 208 26 127 27 64 28 -217 29 15 30 -83 31 110 32 -253 33 52 34 -242 35 -149 36 75 37 95 38 -20 39 -76 40 95 41 172 42 -208 43 -173 44 -23 45 63 46 -115 47 57 48 28 49 183 50 172;
